137
100000
67571
37819
22933
59684
21137
51584
17254
11144
9496
36977
3446
3870
48599
4575
44062
42
5155
25763
55935
61651
15983
8705
43596
38014
34524
14955
33851
9115
70946
60719
48871
23167
963
2526
21845
28169
51340
40197
61585
15973
26104
66149
54095
48416
73226
34097
17714
44065
27323
68801
19331
47563
2093
30843
27181
2729
42935
22848
63455
25920
68117
27749
40993
37182
38087
49596
55938
57065
39714
17278
54499
22213
5426
12321
34203
39281
4852
16660
55831
62297
41785
28982
63271
29464
57081
19752
31585
41763
26012
72819
50404
6648
6219
25439
19337
262
18178
39638
10504
25513
27288
45905
30896
12053
5839
8351
65893
27275
3042
4561
15038
41534
5064
28044
34107
10136
55020
50461
69157
51589
2296
29790
68415
9659
33153
20396
58840
27240
18976
48851
20557
41853
3137
70429
61986
72680
7902
